(set-info :smt-lib-version 2.6)
(set-logic QF_SLIA)
(set-info :source |
Generated by: Dmitry Blotsky1, Federico Mora, Murphy Berzish, Yunhui Zheng, Ifaz Kabir, Vijay Ganesh, Zhengyang Lu
Generated on: 2018-01-24
Generator: StringFuzz
Application: Evaluate string solvers
Target solver: Z3str3, CVC4, Z3str2, Norn
Publications: Blotsky, D., Mora, F., Berzish, M., Zheng, Y., Kabir, I., & Ganesh, V. (2018). Stringfuzz: A fuzzer for string solvers. In CAV 2018.
Description: transformed by StringFuzz, a modular string and regex fuzzer, from an industrial benchmark
|)
(set-info :license "https://creativecommons.org/licenses/by/4.0/")
(set-info :category "random")
(set-info :status unknown)

(declare-const x String)
(assert (= x "----'\x0c'#0?y?#-{#]iUk1=gx1>`--3Rf'R$E#-G#BBZ' '<$' 'C#t9+pBBY"))
(assert (str.in_re x (re.+ (re.union (str.to_re "m0A#L#~'E4kyi9i'\r'") (str.to_re "--Y")))))
(check-sat)

(exit)
